p cnf 226 340
-114 111 0
-114 112 0
114 -111 -112 0
-115 107 0
-115 108 0
115 -107 -108 0
-116 105 0
-116 106 0
116 -105 -106 0
-117 103 0
-117 104 0
117 -103 -104 0
-118 101 0
-118 102 0
118 -101 -102 0
-119 99 0
-119 100 0
119 -99 -100 0
-120 93 0
-120 94 0
120 -93 -94 0
-121 91 0
-121 92 0
121 -91 -92 0
-122 89 0
-122 90 0
122 -89 -90 0
-123 85 0
-123 86 0
123 -85 -86 0
-124 83 0
-124 84 0
124 -83 -84 0
-125 81 0
-125 82 0
125 -81 -82 0
-126 79 0
-126 80 0
126 -79 -80 0
-127 69 0
-127 70 0
127 -69 -70 0
-128 63 0
-128 64 0
128 -63 -64 0
-129 61 0
-129 62 0
129 -61 -62 0
-130 57 0
-130 58 0
130 -57 -58 0
-131 59 0
-131 60 0
131 -59 -60 0
-132 -130 0
-132 -131 0
132 130 131 0
-133 -129 0
-133 132 0
133 129 -132 0
-134 -128 0
-134 133 0
134 128 -133 0
-135 65 0
-135 66 0
135 -65 -66 0
-136 134 0
-136 -135 0
136 -134 135 0
-137 67 0
-137 68 0
137 -67 -68 0
-138 136 0
-138 -137 0
138 -136 137 0
-139 -127 0
-139 138 0
139 127 -138 0
-140 71 0
-140 72 0
140 -71 -72 0
-141 139 0
-141 -140 0
141 -139 140 0
-142 73 0
-142 74 0
142 -73 -74 0
-143 141 0
-143 -142 0
143 -141 142 0
-144 75 0
-144 76 0
144 -75 -76 0
-145 143 0
-145 -144 0
145 -143 144 0
-146 77 0
-146 78 0
146 -77 -78 0
-147 145 0
-147 -146 0
147 -145 146 0
-148 -126 0
-148 147 0
148 126 -147 0
-149 -125 0
-149 148 0
149 125 -148 0
-150 -124 0
-150 149 0
150 124 -149 0
-151 -123 0
-151 150 0
151 123 -150 0
-152 87 0
-152 88 0
152 -87 -88 0
-153 151 0
-153 -152 0
153 -151 152 0
-154 -122 0
-154 153 0
154 122 -153 0
-155 -121 0
-155 154 0
155 121 -154 0
-156 -120 0
-156 155 0
156 120 -155 0
-157 95 0
-157 96 0
157 -95 -96 0
-158 156 0
-158 -157 0
158 -156 157 0
-159 97 0
-159 98 0
159 -97 -98 0
-160 158 0
-160 -159 0
160 -158 159 0
-161 -119 0
-161 160 0
161 119 -160 0
-162 -118 0
-162 161 0
162 118 -161 0
-163 -117 0
-163 162 0
163 117 -162 0
-164 -116 0
-164 163 0
164 116 -163 0
-165 -115 0
-165 164 0
165 115 -164 0
-166 109 0
-166 110 0
166 -109 -110 0
-167 165 0
-167 -166 0
167 -165 166 0
-168 -114 0
-168 167 0
168 114 -167 0
-169 -113 0
-169 -168 0
169 113 168 0
-170 53 0
-170 54 0
170 -53 -54 0
-171 45 0
-171 46 0
171 -45 -46 0
-172 41 0
-172 42 0
172 -41 -42 0
-173 39 0
-173 40 0
173 -39 -40 0
-174 37 0
-174 38 0
174 -37 -38 0
-175 31 0
-175 32 0
175 -31 -32 0
-176 29 0
-176 30 0
176 -29 -30 0
-177 25 0
-177 26 0
177 -25 -26 0
-178 23 0
-178 24 0
178 -23 -24 0
-179 19 0
-179 20 0
179 -19 -20 0
-180 17 0
-180 18 0
180 -17 -18 0
-181 13 0
-181 14 0
181 -13 -14 0
-182 5 0
-182 6 0
182 -5 -6 0
-183 3 0
-183 4 0
183 -3 -4 0
-184 1 0
-184 2 0
184 -1 -2 0
-185 -183 0
-185 -184 0
185 183 184 0
-186 -182 0
-186 185 0
186 182 -185 0
-187 7 0
-187 8 0
187 -7 -8 0
-188 186 0
-188 -187 0
188 -186 187 0
-189 9 0
-189 10 0
189 -9 -10 0
-190 188 0
-190 -189 0
190 -188 189 0
-191 11 0
-191 12 0
191 -11 -12 0
-192 190 0
-192 -191 0
192 -190 191 0
-193 -181 0
-193 192 0
193 181 -192 0
-194 15 0
-194 16 0
194 -15 -16 0
-195 193 0
-195 -194 0
195 -193 194 0
-196 -180 0
-196 195 0
196 180 -195 0
-197 -179 0
-197 196 0
197 179 -196 0
-198 21 0
-198 22 0
198 -21 -22 0
-199 197 0
-199 -198 0
199 -197 198 0
-200 -178 0
-200 199 0
200 178 -199 0
-201 -177 0
-201 200 0
201 177 -200 0
-202 27 0
-202 28 0
202 -27 -28 0
-203 201 0
-203 -202 0
203 -201 202 0
-204 -176 0
-204 203 0
204 176 -203 0
-205 -175 0
-205 204 0
205 175 -204 0
-206 33 0
-206 34 0
206 -33 -34 0
-207 205 0
-207 -206 0
207 -205 206 0
-208 35 0
-208 36 0
208 -35 -36 0
-209 207 0
-209 -208 0
209 -207 208 0
-210 -174 0
-210 209 0
210 174 -209 0
-211 -173 0
-211 210 0
211 173 -210 0
-212 -172 0
-212 211 0
212 172 -211 0
-213 43 0
-213 44 0
213 -43 -44 0
-214 212 0
-214 -213 0
214 -212 213 0
-215 -171 0
-215 214 0
215 171 -214 0
-216 47 0
-216 48 0
216 -47 -48 0
-217 215 0
-217 -216 0
217 -215 216 0
-218 49 0
-218 50 0
218 -49 -50 0
-219 217 0
-219 -218 0
219 -217 218 0
-220 51 0
-220 52 0
220 -51 -52 0
-221 219 0
-221 -220 0
221 -219 220 0
-222 -170 0
-222 221 0
222 170 -221 0
-223 55 0
-223 56 0
223 -55 -56 0
-224 222 0
-224 -223 0
224 -222 223 0
-225 113 0
-225 -224 0
225 -113 224 0
-226 -169 0
-226 -225 0
226 169 225 0
-226 0
